16 17

17 6 14 14 3 9 2 12
8 4 17 11 16 9 1 12 12 4
15 2 7 8 3 7 16 9 6 5 11 9
3 12 8 10 7 4 2 8 10 7
5 9 7 14 8 12 12 2 6 8
11 3 3 11 9 11 16 11 14 9
5 8 17 2 7 7 4 6 11 14 3 2
16 9 3 8 5 8 13 13 4 7
16 14 17 12 1 4 10 5 14 15 3 14
3 9 2 15 7 5 6 9 1 14
13 10 3 7 6 11 1 11 7 12
9 9 12 2 14 12 10 5 11 2
1 3 13 9 2 5 17 6 7 7
15 13 16 6 4 2 17 10 3 14 13 10
14 13 4 7 7 14 12 6
2 10 9 3 4 14 11 9 7 13
